1467.49
0 74 45 13 14 65 25 9 32 26 0
0 37 20 54 53 40 3 49 61 68 75 0
0 38 66 31 50 24 64 63 0
0 23 56 18 44 39 10 72 12 52 4 0
0 42 41 43 28 48 15 8 35 11 7 0
0 27 5 47 29 30 62 73 1 16 51 0
0 69 36 57 59 58 6 2 34 67 0
0 71 70 60 19 46 21 22 33 55 17 0
